c Exact Cover generated CNF. n=7 S=[[3, 6], [1, 6], [2, 4, 7], [2, 7], [1, 2, 4, 7]]
p cnf 12 42
1 0
2 0
3 0
4 0
5 0
6 0
7 0
-8 3 0
-8 6 0
-9 1 0
-9 6 0
-10 2 0
-10 4 0
-10 7 0
-11 2 0
-11 7 0
-12 1 0
-12 2 0
-12 4 0
-12 7 0
-1 9 12 0
-2 10 11 12 0
-3 8 0
-4 10 12 0
-5 0
-6 8 9 0
-7 10 11 12 0
-8 -8 0
-8 -9 0
-9 -8 0
-9 -9 0
-9 -12 0
-10 -10 0
-10 -11 0
-10 -12 0
-11 -10 0
-11 -11 0
-11 -12 0
-12 -9 0
-12 -10 0
-12 -11 0
-12 -12 0
